b1/data/instances/modelo_generico_exemplo.lp
\* Problema da Mochila Simples *\

Maximize
 OBJ: 10 X + 6 Y + 4 Z

Subject To
 LIM1: X + Y + Z <= 3
 LIM2: 2 X + Y <= 4

Bounds
 0 <= X
 0 <= Y
 0 <= Z

General
 X Y Z

End