b1/data/instances/modelo_generico_exemplo.mps
NAME          SIMPLE_KNAPSACK
ROWS
 N  OBJ
 L  LIM1
 L  LIM2
COLUMNS
    X      OBJ     10     LIM1    1    LIM2    2
    Y      OBJ      6     LIM1    1    LIM2    1
    Z      OBJ      4     LIM1    1
RHS
    RHS1   LIM1     3     LIM2    4
BOUNDS
 LI BND1   X        0
 LI BND1   Y        0
 LI BND1   Z        0
 INTORG
    MARK0000 'MARKER' 'INTORG'
 INTEND
    MARK0001 'MARKER' 'INTEND'
ENDATA